language Essence 1.3

letting class be function(1 --> 2, 2 --> 2, 3 --> 1)
letting deck_length be 19
letting deck_width be 78
letting length be function(1 --> 4, 2 --> 6, 3 --> 17)
letting n_classes be 2
letting n_containers be 3
letting separation be function({1, 2} --> 39)
letting width be function(1 --> 5, 2 --> 9, 3 --> 57)
